p cnf 19 10
e 1 0
a 2 3 0
e 4 5 0
a 6 7 8 0
e 9 0
a 10 0
e 11 12 0
a 13 0
e 14 0
a 15 16 17 0
e 18 19 0
-19 6 -2 16 0
8 7 -6 -4 -13 0
1 -4 -9 5 0
-19 -3 -7 0
18 1 2 -10 6 0
-15 -1 4 -14 10 0
2 6 -9 19 0
-7 -13 -17 -3 0
-12 -6 -5 0
-2 -5 14 -3 7 0
